p cnf 12 249
10 0
11 0
4 0
-12 10 0
4 0
7 0
-11 11 0
-10 0
-12 0
-4 7 0
-10 0
-11 0
-4 1 0
4 0
7 0
-10 0
-11 1 0
11 0
12 0
5 0
9 0
-10 1 0
10 0
11 0
12 0
4 0
5 0
9 10 0
4 0
-11 0
-3 0
-7 11 0
12 0
2 0
7 0
-6 0
-9 1 0
11 0
12 0
2 0
4 0
6 0
-9 10 0
3 0
4 0
-11 0
-12 0
-7 1 0
11 0
12 0
3 0
4 0
-2 0
-9 1 0
12 0
3 0
6 0
8 0
-11 0
-7 11 0
12 0
3 0
5 0
9 0
-1 0
-6 -10 0
-11 0
-3 0
-4 0
-7 1 0
12 0
3 0
9 0
-11 0
-7 0
-8 11 0
12 0
2 0
6 0
-1 0
-4 0
-9 11 0
3 0
4 0
8 0
-10 0
-12 0
-9 10 0
11 0
12 0
2 0
4 0
6 0
-1 0
-9 11 0
12 0
2 0
4 0
6 0
9 0
-3 0
-5 11 0
12 0
2 0
3 0
4 0
6 0
8 0
9 0
-5 3 0
-10 0
-11 0
-12 0
-4 0
-7 1 0
11 0
12 0
-2 0
-3 0
-7 0
-9 11 0
12 0
3 0
-10 0
-2 0
-4 0
-9 11 0
12 0
9 0
-10 0
-4 0
-5 0
-6 11 0
3 0
4 0
8 0
9 0
-10 0
-12 0
-2 10 0
12 0
3 0
4 0
-11 0
-7 0
-8 0
-9 10 0
2 0
7 0
8 0
-11 0
-3 0
-4 0
-9 10 0
6 0
7 0
8 0
-11 0
-2 0
-3 0
-4 11 0
12 0
3 0
4 0
-1 0
-2 0
-5 0
-9 11 0
12 0
7 0
8 0
-2 0
-3 0
-5 0
-9 12 0
3 0
4 0
8 0
-11 0
-2 0
-6 0
-7 1 0
12 0
3 0
-11 0
-4 0
-7 0
-8 0
-9 11 0
12 0
2 0
6 0
9 0
-3 0
-4 0
-5 0
-7 12 0
2 0
3 0
6 0
8 0
-1 0
-11 0
-5 0
-7 4 0
6 0
7 0
8 0
9 0
-1 0
-10 0
-11 0
-5 10 0
7 0
-11 0
-2 0
-3 0
-4 0
-6 0
-8 2 0
4 0
6 0
7 0
8 0
-1 0
-10 0
-11 0
-5 0
-9 12 0
3 0
6 0
8 0
-1 0
-11 0
-2 0
-4 0
-5 0
-7 3 0
4 0
6 0
7 0
8 0
-1 0
-10 0
-11 0
-12 0
-2 0
-5 0
-9 0
